(declare-const term_to_project_onto1 Real)
(declare-const tmp Int)
(declare-const term_to_project_onto Real)
(declare-const term_to_project_onto0 Real)
(assert (exists
         ((|tmp'?1| Int) (havoc?2 Int) (|y'?3| Int) (|x'?4| Int) (y?5 Int)
            (x?6 Int))
         (and (<= (- y?5) 0) (<= (- x?6) 0) (<= (+ x?6 -99999) 0)
                (or (<= (+ havoc?2 1) 0) (<= (+ (- havoc?2) 1) 0))
                (= (+ |tmp'?1| (- havoc?2)) 0) (= (+ |y'?3| (- y?5) -1) 0)
                (= (+ |x'?4| (- x?6) -1) 0)
                (= term_to_project_onto1 (+ |x'?4| (- x?6)))
                (= term_to_project_onto0 (+ |y'?3| (- y?5)))
                (= term_to_project_onto (+ |tmp'?1| (- tmp))))))
(check-sat)
